NAME : mar50_1000_1
COMMENT : Data set with 50 points
COMMENT : CIn-UFPE
COMMENT : Contributed by Marcelo Lacerda
TYPE : TSP
DIMENSION : 50
EDGE_WEIGHT_TYPE : EUC_2D
NODE_COORD_SECTION
1 485 264
2 227 126
3 13 545
4 312 40
5 268 850
6 405 983
7 526 4
8 895 985
9 10 603
10 374 158
11 627 849
12 300 228
13 284 770
14 361 171
15 281 140
16 859 45
17 718 775
18 260 889
19 958 604
20 119 940
21 513 361
22 951 378
23 255 18
24 942 973
25 93 300
26 536 28
27 262 264
28 652 768
29 915 596
30 262 76
31 991 361
32 238 798
33 783 623
34 795 330
35 947 337
36 561 12
37 2 275
38 930 662
39 461 528
40 855 552
41 430 560
42 119 740
43 92 719
44 275 597
45 35 770
46 262 539
47 529 363
48 767 21
49 830 484
50 540 819
EOF
